c description: Random 3-CNF over 23 variables and 98 clauses
c generator: CNFgen (0.9.2)
c copyright: (C) 2012-2022 Massimo Lauria <massimo.lauria@uniroma1.it>
c url: https://massimolauria.net/cnfgen
c command line: cnfgen --output CNF_4.28/23_bit_98_353.cnf randkcnf 3 23 98
c
p cnf 23 98
18 -21 23 0
-1 7 -23 0
4 -5 -7 0
1 2 13 0
17 18 -20 0
6 -7 -17 0
-5 -14 17 0
4 -8 -19 0
6 8 -12 0
-2 -9 23 0
-1 -12 -18 0
8 13 -17 0
-3 9 13 0
11 -12 13 0
-3 -6 -8 0
-5 9 -11 0
6 -7 18 0
-4 -13 20 0
12 -17 20 0
1 13 -19 0
1 11 14 0
6 -16 -21 0
-5 -7 23 0
-11 -19 23 0
-11 -13 21 0
-1 5 -11 0
-3 11 -19 0
-4 -5 -15 0
6 10 20 0
-5 9 -21 0
-5 -15 -21 0
-2 -10 13 0
-11 12 -20 0
2 -3 -14 0
2 -19 21 0
1 3 9 0
6 -12 15 0
1 -9 -20 0
11 -14 -18 0
5 14 -23 0
3 -8 -20 0
-9 11 -17 0
1 -5 10 0
-15 16 18 0
5 9 13 0
-3 -4 -23 0
7 9 15 0
7 10 16 0
8 -15 20 0
2 -11 18 0
-1 -16 22 0
-1 6 16 0
-6 11 15 0
-2 -7 -15 0
11 -14 -20 0
1 10 -20 0
4 -6 8 0
-7 13 22 0
13 -18 -22 0
12 17 20 0
-3 9 19 0
-2 3 5 0
-14 -17 23 0
-4 -7 20 0
4 8 -20 0
8 14 -19 0
-9 16 21 0
10 -22 -23 0
5 19 23 0
-9 12 -23 0
-5 -6 8 0
3 14 -17 0
-8 12 15 0
4 -11 19 0
11 -19 21 0
10 -14 -20 0
-5 -10 11 0
-3 13 -18 0
-5 -12 16 0
6 -10 12 0
9 -14 -22 0
7 -9 -19 0
-3 -4 -18 0
-2 8 12 0
-5 17 19 0
-4 14 -17 0
-9 10 13 0
-3 12 -23 0
-5 8 -9 0
-9 -12 19 0
-2 8 -12 0
-1 7 -19 0
-4 11 -22 0
1 -4 -11 0
-4 -7 23 0
-4 -5 -16 0
12 -20 21 0
6 21 -22 0
